011110100000000000000000001001100100000111110110000000001110100001101101011111001101010011100101100010011001011111110011111000010110000110110110000110000000001100010000110010110000100000110011100100101001110101011010011110010001100011001010101010001101101111101101011110010101000011010101000100010011010100011101011010011000101010100110110001110101001010100010101011001111000001011011000011001101100010010101000011011110011001000001011000000100001111000110110010000001111101001101110110100100111111000000001110111011101001001000111011010100110001111001011111100110111011001010011110001110101101101111100011111011100110010111111110110010100010101011100001010010011101100111000000001001010101011100100101000101100100011100100010010010010110011001010000110011111011000101